% Data
% Teams number
Tn = 3;
% Stadions number
Sn = 2;
% Latitudes
TLatitude = [56.10798910180895, 55.812101853322794, 55.5696539071699];
SLatitude = [55.91015591955139, 55.59276132917243];
% Longitudes
TLongitude = [36.49721968194649, 36.60780325349769, 37.25560882972526];
SLongitude = [36.61886161065281, 36.72502183934196];
% Stadions pricelist
SPriceList = array3d(1..Sn, 1..2, 5..23, [500, 500, 500, 500, 500, 500, 500, 500, 500, 500, 500, 500, 500, 500, 500, 500, 500, 500, 500, 500, 500, 500, 500, 500, 500, 500, 500, 500, 500, 500, 500, 500, 500, 500, 500, 500, 500, 500, 50, 50, 50, 50, 50, 50, 50, 50, 50, 50, 50, 50, 50, 50, 50, 50, 50, 50, 50, 50, 50, 50, 50, 50, 50, 50, 50, 50, 50, 50, 50, 50, 50, 50, 50, 50, 50, 50]);